46 22
96 25
188 7
270 75
368 69
76 133
88 81
163 100
292 85
323 146
79 218
97 180
223 229
257 191
325 163
60 250
117 290
170 264
260 267
374 292
2 391
91 356
211 321
287 341
354 329
158 47
71 1
254 286
268 358
263 282
